[TITLE]
Float valve simulation in EPANET

[JUNCTIONS]
;ID              	Elev        	Demand      	Pattern
 1              	0         	0           	                	;
 2             	103.2         	0         	                	;
 3              	103.2         	0         	                	;
 4              	0         	0         	                	;

[RESERVOIRS]
;ID	Head
Res	123.2

[TANKS]
;ID              	Elevation   	InitLevel   	MinLevel    	MaxLevel    	Diameter    	MinVol      	VolCurve
 Tank               	100.0         	2.36         	0         	3.2         	9.12        	0           	                	;

[PIPES]
;ID              	Node1           	Node2           	Length      	Diameter    	Roughness   	MinorLoss   	Status
 1.2              1              	  2              	    1       	150          	0.01         	0           	Open  	;
 3.Tank              3              	  Tank             1       	999          	0.01         	0           	Open  	;
Tank.4   Tank 4 1 150 	0.01         	0           	CV  	;

[PUMPS]

[VALVES]
;ID              	Node1           	Node2           	Diameter    	Type	Setting     	MinorLoss
Res.1 Res 1 100 TCV 5000 0.001
2.3 2 3  100 PSV 0 0.001

[DEMANDS]
;Junction        	Demand      	Pattern         	Category
4 1.000000 4

[PATTERNS]
;ID	Multiplier
4	2.0400	1.8023	1.7116	1.7003	1.5524	1.5076
4	1.5524	1.5188	1.6208	1.5076	1.5076	1.6208
4	1.5076	1.4851	1.4729	1.4851	1.4504	1.5749
4	1.5412	1.6657	1.8023	1.8584	1.7911	1.9717
4	2.2103	2.3460	3.1396	3.7169	2.9580	3.4568
4	3.2640	3.5476	3.2069	3.2303	3.1171	2.9804
4	2.6744	2.9356	3.0376	2.8111	2.6408	2.6183
4	2.9356	2.9917	2.4817	2.7091	2.2777	2.4704
4	2.4143	2.5837	2.4704	2.4592	2.7091	2.7428
4	2.4817	2.7540	2.8448	2.8223	2.7316	2.6857
4	2.7316	2.5837	2.6408	2.7540	2.6520	2.7877
4	3.1957	2.9356	2.2889	2.4480	2.4704	2.4368
4	2.7989	2.9131	2.9804	2.6071	2.7316	2.6744
4	2.7091	2.8897	2.7091	2.5949	2.5051	2.2216
4	2.7652	2.5388	2.2777	2.5388	2.3460	2.5163
4	2.6520	2.2103	2.2664	1.9951	1.8472	1.6208

[TIMES]
Duration	23:45:00
Hydraulic Timestep	0:15
Pattern Timestep	0:15
Pattern Start	0:00
Report Timestep	0:15
Report Start	0:00
Start ClockTime	12:00 AM
Statistic	None

[OPTIONS]
Units	LPS
Headloss	D-W
Trials	500
Accuracy	0.01
UNBALANCED	CONTINUE 999

[SCRIPT]

-- Float valve simulation
--
-- A float valve progressively closes as the tank level rises, throttling
-- inflow to prevent overflow. The valve is modelled as a TCV (Throttle
-- Control Valve) whose minor-loss coefficient K is adjusted at each
-- timestep based on the current tank water level.
--
-- The logic has three parts:
--
--   1. Compute how far open the valve is (0–100 %) from the tank level.
--      The valve is fully open when the level is below (controlDepth - range)
--      and fully closed when the level reaches controlDepth. In between it
--      scales linearly.
--
--   2. Map the open percentage to a K value using a 9-point curve. The
--      curve spans many orders of magnitude (K = 2 at 100 % open up to
--      K ~ 1e20 at 0 % open) so logarithmic interpolation is used between
--      points rather than linear interpolation.
--
--   3. Apply the K value to the TCV every iteration. Because the setting
--      is written inside on_event("iteration"), EPANET re-solves with the
--      updated K so it takes effect within the current timestep.

-- Float valve parameters
local controlDepth = 2.5   -- tank level (m) at which the valve is fully closed
local range        = 1.0   -- regulation range below controlDepth (m)
local multiplier   = 2     -- curve K multiplier

-- Valve characteristic curve: { open_percent, k_value }
-- K increases as the valve closes — very large K means almost no flow.
local curve = {
    {   0, 1e20   },
    {   2, 1e10   },
    {   4, 1e5    },
    {  10, 5012   },
    {  20, 1202   },
    {  40, 250    },
    {  60, 50     },
    {  80, 10     },
    { 100, 2      }
}

-- Returns how far open the valve is (0–100 %) based on the tank level.
-- Below (controlDepth - range) the valve is wide open; above controlDepth
-- it is fully closed.
local function get_open_percent(level)
    if level < controlDepth - range then
        return 100
    end
    if level > controlDepth then
        return 0
    end
    return ((controlDepth - level) / range) * 100
end

-- Looks up the K value for a given open percentage by walking the curve
-- and interpolating logarithmically between the two bracketing points.
-- Logarithmic interpolation is essential here because K spans ~18 orders
-- of magnitude — linear interpolation would produce wildly wrong values
-- in the steep parts of the curve.
local function get_k_value(open_pct)
    -- At or below the first curve point (fully closed)
    if open_pct <= curve[1][1] then
        return curve[1][2] * multiplier
    end
    -- At or above the last curve point (fully open)
    if open_pct >= curve[#curve][1] then
        return curve[#curve][2] * multiplier
    end
    -- Find the two curve points that bracket the open percentage
    for i = 2, #curve do
        if open_pct <= curve[i][1] then
            local lo_pct, lo_k = curve[i - 1][1], curve[i - 1][2]
            local hi_pct, hi_k = curve[i][1],     curve[i][2]
            local f = (open_pct - lo_pct) / (hi_pct - lo_pct)
            -- Logarithmic interpolation:  K = (K_hi * m)^f  *  (K_lo * m)^(1-f)
            return (hi_k * multiplier) ^ f * (lo_k * multiplier) ^ (1 - f)
        end
    end
    return curve[#curve][2] * multiplier
end

function on_event(event)

    if event == "iteration" then
        -- For a tank node, pressure equals the water level above the
        -- tank's base elevation, which is exactly what we need.
        local level    = node("Tank").pressure
        local open_pct = get_open_percent(level)
        local k        = get_k_value(open_pct)
        local tcv      = link("Res.1")

        -- Only update if the K value has changed meaningfully
        if math.abs(tcv.setting - k) > 0.01 then
            tcv.setting = k
            print(string.format(
                "  Float valve: level=%.3f m | open=%.1f%% | K=%.1f",
                level, open_pct, k))
        end

    elseif event == "report" then
        -- Summary line per timestep showing the settled state
        local level = node("Tank").pressure
        local tcv   = link("Res.1")
        print(string.format(
            "  Step: level=%.3f m | open=%.1f%% | K=%.1f | inflow=%.3f LPS",
            level, get_open_percent(level), tcv.setting, tcv.flow))
    end
end

[REPORT]
Status	FULL
NODE Tank
LINK Res.1
PRESSURE YES
FLOW YES
SETTING YES

[END]
